c 57_3_checker_5cl.cnf
c
c field = 57
c formula set type = 3_checker_5cl
c
p cnf 5 20
110 
114 
116 
-119 
-108 
111 
115 
117 
-118 
-109 
114 
116 
118 
-111 
-108 
115 
117 
119 
-110 
-109 
22 
52 
82 
-143 
-172 
23 
53 
83 
-142 
-173 
52 
82 
142 
-23 
-172 
53 
83 
143 
-22 
-173 
16 
48 
80 
-145 
-176 
17 
49 
81 
-144 
-177 
48 
80 
144 
-17 
-176 
49 
81 
145 
-16 
-177 
80 
144 
176 
-209 
-48 
81 
145 
177 
-208 
-49 
144 
176 
208 
-81 
-48 
145 
177 
209 
-80 
-49 
28 
56 
84 
-141 
-168 
29 
57 
85 
-140 
-169 
56 
84 
140 
-29 
-168 
57 
85 
141 
-28 
-169 
